Instance name:    bar-n100-5.txt
Authors:          Gerhard Hiermann
Date:             2022-mm-dd
Reference:        XYZ
Solution: 0;6;880.000;60.00 s
Route 1 :  3 53 44 27 18 77 68 12 29 94 62 6 56 20 79 8 70 33 58 83
Route 2 :  48 28 78 25 98 5 55 19 41 75 69 38 91 14 88 64 39 89
Route 3 :  37 87 45 95 22 30 80 72 9 59 43 4 93 16 54 66 17 67
Route 4 :  31 36 34 84 86 10 81 26 60 76 2 1 7 52 57 51
Route 5 :  15 11 65 50 100 35 61 24 74 21 85 71 32 82
Route 6 :  13 63 47 40 97 90 46 42 49 92 23 73 99 96
